decision_x1=[0,4];
decision_x2=[0,4];
decision_x3=[0,4];
decision_x4=[0,4];
decision_x5=[0,4];
decision_x6=[0,4];
decision_x7=[0,4];
decision_x8=[0,4];
random_y1=[0,4];
random_y2=[0,4];
random_y3=[0,4];
random_y4=[0,4];
constraint_x4_x1=[
0,1,8.3|
0,2,7.8|
0,3,0.64|
0,4,4.3|
1,0,9.4|
1,2,3.5|
1,3,1.2|
1,4,3.4|
2,0,6.2|
2,1,7.9|
2,3,1.4|
2,4,3.4|
3,0,5.4|
3,1,9.5|
3,2,2.4|
3,4,6.2|
4,0,7.2|
4,1,7.2|
4,2,5.2|
4,3,1.8|
];
constraint_x4_x3=[
0,1,3.4|
0,2,7.3|
0,3,5.3|
0,4,6.2|
1,0,5.5|
1,2,5.3|
1,3,4|
1,4,6.2|
2,0,2.9|
2,1,5.1|
2,3,2.7|
2,4,5.3|
3,0,2.5|
3,1,9.1|
3,2,5.3|
3,4,5.4|
4,0,2.9|
4,1,1.1|
4,2,3.9|
4,3,5.5|
];
constraint_x5_x2=[
0,1,9|
0,2,5|
0,3,3.2|
0,4,4.7|
1,0,7.2|
1,2,2.4|
1,3,5.1|
1,4,2.8|
2,0,1.2|
2,1,6.3|
2,3,9.8|
2,4,8.5|
3,0,4.6|
3,1,1.1|
3,2,2.2|
3,4,6.6|
4,0,9.5|
4,1,4.6|
4,2,2.6|
4,3,0.95|
];
constraint_x5_x3=[
0,1,6.4|
0,2,8.8|
0,3,3.5|
0,4,0.3|
1,0,4.5|
1,2,7.7|
1,3,3.3|
1,4,1.4|
2,0,7.8|
2,1,6.6|
2,3,5.8|
2,4,2.8|
3,0,0.69|
3,1,3.5|
3,2,2.6|
3,4,8.1|
4,0,7.4|
4,1,4.2|
4,2,3.6|
4,3,2.2|
];
constraint_x6_x2=[
0,1,0.22|
0,2,7|
0,3,4.7|
0,4,0.73|
1,0,7.4|
1,2,3.1|
1,3,2.2|
1,4,3|
2,0,9.3|
2,1,0.37|
2,3,6.9|
2,4,4.5|
3,0,6.4|
3,1,2.6|
3,2,8.7|
3,4,7.3|
4,0,1.3|
4,1,0.11|
4,2,1.1|
4,3,8.4|
];
constraint_x6_x3=[
0,1,5.8|
0,2,6.2|
0,3,5.3|
0,4,3.1|
1,0,9.9|
1,2,4.3|
1,3,8.3|
1,4,0.73|
2,0,9.4|
2,1,0.24|
2,3,4.6|
2,4,4|
3,0,8|
3,1,3.1|
3,2,3.1|
3,4,0.61|
4,0,9.1|
4,1,1.3|
4,2,8.7|
4,3,5.7|
];
constraint_x6_x4=[
0,1,1.6|
0,2,4.6|
0,3,8|
0,4,8.9|
1,0,9.1|
1,2,3.3|
1,3,7.2|
1,4,9.1|
2,0,8|
2,1,6.5|
2,3,6.9|
2,4,1.5|
3,0,6.6|
3,1,8.7|
3,2,1.3|
3,4,3.3|
4,0,6.2|
4,1,0.075|
4,2,8.3|
4,3,9.8|
];
constraint_x7_x2=[
0,1,1.5|
0,2,0.83|
0,3,8.2|
0,4,5.7|
1,0,4.2|
1,2,8.4|
1,3,3.7|
1,4,9.3|
2,0,5.4|
2,1,9.5|
2,3,9.6|
2,4,4.9|
3,0,8.2|
3,1,1.3|
3,2,2|
3,4,8|
4,0,7.6|
4,1,6.3|
4,2,1.5|
4,3,0.65|
];
constraint_x7_x4=[
0,1,0.26|
0,2,0.8|
0,3,3|
0,4,9.9|
1,0,8.7|
1,2,4.6|
1,3,9.1|
1,4,0.92|
2,0,9.7|
2,1,10|
2,3,3.6|
2,4,5.4|
3,0,4.7|
3,1,8.6|
3,2,1.5|
3,4,3.2|
4,0,0.74|
4,1,3|
4,2,5.5|
4,3,3.8|
];
constraint_x7_x5=[
0,1,6.6|
0,2,9|
0,3,7|
0,4,4.8|
1,0,2.2|
1,2,4.5|
1,3,9.6|
1,4,3.5|
2,0,2.5|
2,1,6.4|
2,3,0.96|
2,4,2.3|
3,0,4.3|
3,1,6.7|
3,2,7.4|
3,4,5.4|
4,0,9.1|
4,1,9.7|
4,2,9.4|
4,3,1.5|
];
constraint_x7_x6=[
0,1,2.8|
0,2,0.42|
0,3,0.9|
0,4,2.7|
1,0,0.55|
1,2,4.8|
1,3,5.3|
1,4,8.8|
2,0,0.66|
2,1,9.3|
2,3,1.5|
2,4,3.6|
3,0,7.7|
3,1,3.4|
3,2,1.9|
3,4,6.7|
4,0,5.1|
4,1,0.2|
4,2,6.7|
4,3,0.68|
];
constraint_x8_x2=[
0,1,4.5|
0,2,7.1|
0,3,1.8|
0,4,2.5|
1,0,7.7|
1,2,0.19|
1,3,3.4|
1,4,0.2|
2,0,7.8|
2,1,5.3|
2,3,2.2|
2,4,8|
3,0,6.4|
3,1,9.1|
3,2,7.6|
3,4,2.9|
4,0,3.4|
4,1,1.9|
4,2,3.1|
4,3,5.6|
];
constraint_x8_x5=[
0,1,4.3|
0,2,7.2|
0,3,2.9|
0,4,6.7|
1,0,2.8|
1,2,8|
1,3,5.6|
1,4,0.3|
2,0,2.4|
2,1,1.1|
2,3,9.9|
2,4,2.4|
3,0,7.2|
3,1,8.5|
3,2,2.8|
3,4,4.3|
4,0,2|
4,1,5.2|
4,2,3|
4,3,4.6|
];
constraint_x8_x7=[
0,1,9.8|
0,2,2|
0,3,9.2|
0,4,6|
1,0,8.8|
1,2,3.4|
1,3,8.9|
1,4,3.5|
2,0,5.5|
2,1,7.1|
2,3,4.1|
2,4,0.44|
3,0,6|
3,1,5.5|
3,2,7.8|
3,4,1.7|
4,0,5.6|
4,1,1.7|
4,2,2.2|
4,3,4.1|
];
constraint_x1_y1=[
0,0,5|
0,1,6.6|
0,2,3.7|
0,3,7.9|
0,4,3.1|
1,0,6.7|
1,1,4.2|
1,2,7.2|
1,3,6.4|
1,4,8|
2,0,6.2|
2,1,4.3|
2,2,3.4|
2,3,5.8|
2,4,2|
3,0,4.5|
3,1,9.7|
3,2,9.5|
3,3,5.8|
3,4,8.7|
4,0,6.3|
4,1,4.4|
4,2,7.7|
4,3,6.4|
4,4,2.1|
];
constraint_x2_y2=[
0,0,7.1|
0,1,5.4|
0,2,1.7|
0,3,0.87|
0,4,0.74|
1,0,6|
1,1,1.4|
1,2,4.7|
1,3,0.67|
1,4,7.1|
2,0,4.4|
2,1,1.9|
2,2,3.1|
2,3,4.5|
2,4,2.5|
3,0,6.9|
3,1,5.6|
3,2,4|
3,3,8|
3,4,8.7|
4,0,6.7|
4,1,7.4|
4,2,0.61|
4,3,2|
4,4,6.9|
];
constraint_x3_y3=[
0,0,1.9|
0,1,1.5|
0,2,9.4|
0,3,4.5|
0,4,6.6|
1,0,0.78|
1,1,7.8|
1,2,5.6|
1,3,0.58|
1,4,0.98|
2,0,4.4|
2,1,2.4|
2,2,4.1|
2,3,9.3|
2,4,4.1|
3,0,5.7|
3,1,5.7|
3,2,7.8|
3,3,9|
3,4,6.8|
4,0,5.5|
4,1,7.1|
4,2,3.7|
4,3,3.7|
4,4,4.1|
];
constraint_x4_y4=[
0,0,5.6|
0,1,1.4|
0,2,4.7|
0,3,3|
0,4,1.3|
1,0,7.2|
1,1,8.3|
1,2,4.3|
1,3,0.85|
1,4,6.3|
2,0,2.6|
2,1,1.1|
2,2,3.3|
2,3,0.18|
2,4,6.6|
3,0,3.5|
3,1,2.9|
3,2,1|
3,3,6.9|
3,4,2.7|
4,0,0.74|
4,1,2.2|
4,2,2.8|
4,3,3.6|
4,4,3|
];
initial_distribution_y1=[0.067,0.37,0.33,0.17,0.068];
initial_distribution_y2=[0.21,0.17,0.23,0.26,0.13];
initial_distribution_y3=[0.22,0.16,0.14,0.28,0.2];
initial_distribution_y4=[0.23,0.22,0.044,0.27,0.23];
transition_y1=[
0.17,0.25,0.36,0.018,0.21|
0.2,0.085,0.33,0.025,0.36|
0.31,0.093,0.024,0.34,0.23|
0.1,0.34,0.013,0.32,0.23|
0.28,0.021,0.25,0.34,0.1|
];
transition_y2=[
0.2,0.48,0.23,0.035,0.054|
0.27,0.37,0.2,0.11,0.053|
0.055,0.22,0.052,0.53,0.14|
0.15,0.27,0.26,0.087,0.23|
0.12,0.25,0.3,0.15,0.17|
];
transition_y3=[
0.27,0.26,0.17,0.12,0.19|
0.16,0.2,0.24,0.16,0.24|
0.25,0.16,0.22,0.33,0.051|
0.094,0.1,0.46,0.041,0.3|
0.12,0.15,0.21,0.32,0.2|
];
transition_y4=[
0.024,0.22,0.17,0.36,0.23|
0.18,0.28,0.22,0.3,0.028|
0.021,0.51,0.11,0.2,0.16|
0.17,0.091,0.23,0.19,0.32|
0.016,0.18,0.26,0.32,0.23|
];
